; Tournament scheduling - Decision problem 3 (with home/away)
; n=6, weeks=5, periods=3

(set-option :produce-models true)
(set-option :timeout 300000)
(set-logic QF_LIA)

; Variables M[i,j], P[i,j], H[i,j] for all i!=j
(declare-fun M_0_1 () Int)
(declare-fun P_0_1 () Int)
(declare-fun H_0_1 () Bool)
(declare-fun M_0_2 () Int)
(declare-fun P_0_2 () Int)
(declare-fun H_0_2 () Bool)
(declare-fun M_0_3 () Int)
(declare-fun P_0_3 () Int)
(declare-fun H_0_3 () Bool)
(declare-fun M_0_4 () Int)
(declare-fun P_0_4 () Int)
(declare-fun H_0_4 () Bool)
(declare-fun M_0_5 () Int)
(declare-fun P_0_5 () Int)
(declare-fun H_0_5 () Bool)
(declare-fun M_1_0 () Int)
(declare-fun P_1_0 () Int)
(declare-fun H_1_0 () Bool)
(declare-fun M_1_2 () Int)
(declare-fun P_1_2 () Int)
(declare-fun H_1_2 () Bool)
(declare-fun M_1_3 () Int)
(declare-fun P_1_3 () Int)
(declare-fun H_1_3 () Bool)
(declare-fun M_1_4 () Int)
(declare-fun P_1_4 () Int)
(declare-fun H_1_4 () Bool)
(declare-fun M_1_5 () Int)
(declare-fun P_1_5 () Int)
(declare-fun H_1_5 () Bool)
(declare-fun M_2_0 () Int)
(declare-fun P_2_0 () Int)
(declare-fun H_2_0 () Bool)
(declare-fun M_2_1 () Int)
(declare-fun P_2_1 () Int)
(declare-fun H_2_1 () Bool)
(declare-fun M_2_3 () Int)
(declare-fun P_2_3 () Int)
(declare-fun H_2_3 () Bool)
(declare-fun M_2_4 () Int)
(declare-fun P_2_4 () Int)
(declare-fun H_2_4 () Bool)
(declare-fun M_2_5 () Int)
(declare-fun P_2_5 () Int)
(declare-fun H_2_5 () Bool)
(declare-fun M_3_0 () Int)
(declare-fun P_3_0 () Int)
(declare-fun H_3_0 () Bool)
(declare-fun M_3_1 () Int)
(declare-fun P_3_1 () Int)
(declare-fun H_3_1 () Bool)
(declare-fun M_3_2 () Int)
(declare-fun P_3_2 () Int)
(declare-fun H_3_2 () Bool)
(declare-fun M_3_4 () Int)
(declare-fun P_3_4 () Int)
(declare-fun H_3_4 () Bool)
(declare-fun M_3_5 () Int)
(declare-fun P_3_5 () Int)
(declare-fun H_3_5 () Bool)
(declare-fun M_4_0 () Int)
(declare-fun P_4_0 () Int)
(declare-fun H_4_0 () Bool)
(declare-fun M_4_1 () Int)
(declare-fun P_4_1 () Int)
(declare-fun H_4_1 () Bool)
(declare-fun M_4_2 () Int)
(declare-fun P_4_2 () Int)
(declare-fun H_4_2 () Bool)
(declare-fun M_4_3 () Int)
(declare-fun P_4_3 () Int)
(declare-fun H_4_3 () Bool)
(declare-fun M_4_5 () Int)
(declare-fun P_4_5 () Int)
(declare-fun H_4_5 () Bool)
(declare-fun M_5_0 () Int)
(declare-fun P_5_0 () Int)
(declare-fun H_5_0 () Bool)
(declare-fun M_5_1 () Int)
(declare-fun P_5_1 () Int)
(declare-fun H_5_1 () Bool)
(declare-fun M_5_2 () Int)
(declare-fun P_5_2 () Int)
(declare-fun H_5_2 () Bool)
(declare-fun M_5_3 () Int)
(declare-fun P_5_3 () Int)
(declare-fun H_5_3 () Bool)
(declare-fun M_5_4 () Int)
(declare-fun P_5_4 () Int)
(declare-fun H_5_4 () Bool)

; Domain constraints
(assert (and (>= M_0_1 0) (< M_0_1 5)))
(assert (and (>= P_0_1 0) (< P_0_1 3)))
(assert (and (>= M_0_2 0) (< M_0_2 5)))
(assert (and (>= P_0_2 0) (< P_0_2 3)))
(assert (and (>= M_0_3 0) (< M_0_3 5)))
(assert (and (>= P_0_3 0) (< P_0_3 3)))
(assert (and (>= M_0_4 0) (< M_0_4 5)))
(assert (and (>= P_0_4 0) (< P_0_4 3)))
(assert (and (>= M_0_5 0) (< M_0_5 5)))
(assert (and (>= P_0_5 0) (< P_0_5 3)))
(assert (and (>= M_1_0 0) (< M_1_0 5)))
(assert (and (>= P_1_0 0) (< P_1_0 3)))
(assert (and (>= M_1_2 0) (< M_1_2 5)))
(assert (and (>= P_1_2 0) (< P_1_2 3)))
(assert (and (>= M_1_3 0) (< M_1_3 5)))
(assert (and (>= P_1_3 0) (< P_1_3 3)))
(assert (and (>= M_1_4 0) (< M_1_4 5)))
(assert (and (>= P_1_4 0) (< P_1_4 3)))
(assert (and (>= M_1_5 0) (< M_1_5 5)))
(assert (and (>= P_1_5 0) (< P_1_5 3)))
(assert (and (>= M_2_0 0) (< M_2_0 5)))
(assert (and (>= P_2_0 0) (< P_2_0 3)))
(assert (and (>= M_2_1 0) (< M_2_1 5)))
(assert (and (>= P_2_1 0) (< P_2_1 3)))
(assert (and (>= M_2_3 0) (< M_2_3 5)))
(assert (and (>= P_2_3 0) (< P_2_3 3)))
(assert (and (>= M_2_4 0) (< M_2_4 5)))
(assert (and (>= P_2_4 0) (< P_2_4 3)))
(assert (and (>= M_2_5 0) (< M_2_5 5)))
(assert (and (>= P_2_5 0) (< P_2_5 3)))
(assert (and (>= M_3_0 0) (< M_3_0 5)))
(assert (and (>= P_3_0 0) (< P_3_0 3)))
(assert (and (>= M_3_1 0) (< M_3_1 5)))
(assert (and (>= P_3_1 0) (< P_3_1 3)))
(assert (and (>= M_3_2 0) (< M_3_2 5)))
(assert (and (>= P_3_2 0) (< P_3_2 3)))
(assert (and (>= M_3_4 0) (< M_3_4 5)))
(assert (and (>= P_3_4 0) (< P_3_4 3)))
(assert (and (>= M_3_5 0) (< M_3_5 5)))
(assert (and (>= P_3_5 0) (< P_3_5 3)))
(assert (and (>= M_4_0 0) (< M_4_0 5)))
(assert (and (>= P_4_0 0) (< P_4_0 3)))
(assert (and (>= M_4_1 0) (< M_4_1 5)))
(assert (and (>= P_4_1 0) (< P_4_1 3)))
(assert (and (>= M_4_2 0) (< M_4_2 5)))
(assert (and (>= P_4_2 0) (< P_4_2 3)))
(assert (and (>= M_4_3 0) (< M_4_3 5)))
(assert (and (>= P_4_3 0) (< P_4_3 3)))
(assert (and (>= M_4_5 0) (< M_4_5 5)))
(assert (and (>= P_4_5 0) (< P_4_5 3)))
(assert (and (>= M_5_0 0) (< M_5_0 5)))
(assert (and (>= P_5_0 0) (< P_5_0 3)))
(assert (and (>= M_5_1 0) (< M_5_1 5)))
(assert (and (>= P_5_1 0) (< P_5_1 3)))
(assert (and (>= M_5_2 0) (< M_5_2 5)))
(assert (and (>= P_5_2 0) (< P_5_2 3)))
(assert (and (>= M_5_3 0) (< M_5_3 5)))
(assert (and (>= P_5_3 0) (< P_5_3 3)))
(assert (and (>= M_5_4 0) (< M_5_4 5)))
(assert (and (>= P_5_4 0) (< P_5_4 3)))

; Constraint 0: Symmetry - M[i,j] = M[j,i], P[i,j] = P[j,i], H[i,j] = not H[j,i]
(assert (= M_0_1 M_1_0))
(assert (= P_0_1 P_1_0))
(assert (= H_0_1 (not H_1_0)))
(assert (= M_0_2 M_2_0))
(assert (= P_0_2 P_2_0))
(assert (= H_0_2 (not H_2_0)))
(assert (= M_0_3 M_3_0))
(assert (= P_0_3 P_3_0))
(assert (= H_0_3 (not H_3_0)))
(assert (= M_0_4 M_4_0))
(assert (= P_0_4 P_4_0))
(assert (= H_0_4 (not H_4_0)))
(assert (= M_0_5 M_5_0))
(assert (= P_0_5 P_5_0))
(assert (= H_0_5 (not H_5_0)))
(assert (= M_1_2 M_2_1))
(assert (= P_1_2 P_2_1))
(assert (= H_1_2 (not H_2_1)))
(assert (= M_1_3 M_3_1))
(assert (= P_1_3 P_3_1))
(assert (= H_1_3 (not H_3_1)))
(assert (= M_1_4 M_4_1))
(assert (= P_1_4 P_4_1))
(assert (= H_1_4 (not H_4_1)))
(assert (= M_1_5 M_5_1))
(assert (= P_1_5 P_5_1))
(assert (= H_1_5 (not H_5_1)))
(assert (= M_2_3 M_3_2))
(assert (= P_2_3 P_3_2))
(assert (= H_2_3 (not H_3_2)))
(assert (= M_2_4 M_4_2))
(assert (= P_2_4 P_4_2))
(assert (= H_2_4 (not H_4_2)))
(assert (= M_2_5 M_5_2))
(assert (= P_2_5 P_5_2))
(assert (= H_2_5 (not H_5_2)))
(assert (= M_3_4 M_4_3))
(assert (= P_3_4 P_4_3))
(assert (= H_3_4 (not H_4_3)))
(assert (= M_3_5 M_5_3))
(assert (= P_3_5 P_5_3))
(assert (= H_3_5 (not H_5_3)))
(assert (= M_4_5 M_5_4))
(assert (= P_4_5 P_5_4))
(assert (= H_4_5 (not H_5_4)))

; Constraint 1: Every team plays once a week
(assert (= (+ (ite (= M_0_1 0) 1 0) (ite (= M_0_2 0) 1 0) (ite (= M_0_3 0) 1 0) (ite (= M_0_4 0) 1 0) (ite (= M_0_5 0) 1 0)) 1))
(assert (= (+ (ite (= M_0_1 1) 1 0) (ite (= M_0_2 1) 1 0) (ite (= M_0_3 1) 1 0) (ite (= M_0_4 1) 1 0) (ite (= M_0_5 1) 1 0)) 1))
(assert (= (+ (ite (= M_0_1 2) 1 0) (ite (= M_0_2 2) 1 0) (ite (= M_0_3 2) 1 0) (ite (= M_0_4 2) 1 0) (ite (= M_0_5 2) 1 0)) 1))
(assert (= (+ (ite (= M_0_1 3) 1 0) (ite (= M_0_2 3) 1 0) (ite (= M_0_3 3) 1 0) (ite (= M_0_4 3) 1 0) (ite (= M_0_5 3) 1 0)) 1))
(assert (= (+ (ite (= M_0_1 4) 1 0) (ite (= M_0_2 4) 1 0) (ite (= M_0_3 4) 1 0) (ite (= M_0_4 4) 1 0) (ite (= M_0_5 4) 1 0)) 1))
(assert (= (+ (ite (= M_0_1 0) 1 0) (ite (= M_1_2 0) 1 0) (ite (= M_1_3 0) 1 0) (ite (= M_1_4 0) 1 0) (ite (= M_1_5 0) 1 0)) 1))
(assert (= (+ (ite (= M_0_1 1) 1 0) (ite (= M_1_2 1) 1 0) (ite (= M_1_3 1) 1 0) (ite (= M_1_4 1) 1 0) (ite (= M_1_5 1) 1 0)) 1))
(assert (= (+ (ite (= M_0_1 2) 1 0) (ite (= M_1_2 2) 1 0) (ite (= M_1_3 2) 1 0) (ite (= M_1_4 2) 1 0) (ite (= M_1_5 2) 1 0)) 1))
(assert (= (+ (ite (= M_0_1 3) 1 0) (ite (= M_1_2 3) 1 0) (ite (= M_1_3 3) 1 0) (ite (= M_1_4 3) 1 0) (ite (= M_1_5 3) 1 0)) 1))
(assert (= (+ (ite (= M_0_1 4) 1 0) (ite (= M_1_2 4) 1 0) (ite (= M_1_3 4) 1 0) (ite (= M_1_4 4) 1 0) (ite (= M_1_5 4) 1 0)) 1))
(assert (= (+ (ite (= M_0_2 0) 1 0) (ite (= M_1_2 0) 1 0) (ite (= M_2_3 0) 1 0) (ite (= M_2_4 0) 1 0) (ite (= M_2_5 0) 1 0)) 1))
(assert (= (+ (ite (= M_0_2 1) 1 0) (ite (= M_1_2 1) 1 0) (ite (= M_2_3 1) 1 0) (ite (= M_2_4 1) 1 0) (ite (= M_2_5 1) 1 0)) 1))
(assert (= (+ (ite (= M_0_2 2) 1 0) (ite (= M_1_2 2) 1 0) (ite (= M_2_3 2) 1 0) (ite (= M_2_4 2) 1 0) (ite (= M_2_5 2) 1 0)) 1))
(assert (= (+ (ite (= M_0_2 3) 1 0) (ite (= M_1_2 3) 1 0) (ite (= M_2_3 3) 1 0) (ite (= M_2_4 3) 1 0) (ite (= M_2_5 3) 1 0)) 1))
(assert (= (+ (ite (= M_0_2 4) 1 0) (ite (= M_1_2 4) 1 0) (ite (= M_2_3 4) 1 0) (ite (= M_2_4 4) 1 0) (ite (= M_2_5 4) 1 0)) 1))
(assert (= (+ (ite (= M_0_3 0) 1 0) (ite (= M_1_3 0) 1 0) (ite (= M_2_3 0) 1 0) (ite (= M_3_4 0) 1 0) (ite (= M_3_5 0) 1 0)) 1))
(assert (= (+ (ite (= M_0_3 1) 1 0) (ite (= M_1_3 1) 1 0) (ite (= M_2_3 1) 1 0) (ite (= M_3_4 1) 1 0) (ite (= M_3_5 1) 1 0)) 1))
(assert (= (+ (ite (= M_0_3 2) 1 0) (ite (= M_1_3 2) 1 0) (ite (= M_2_3 2) 1 0) (ite (= M_3_4 2) 1 0) (ite (= M_3_5 2) 1 0)) 1))
(assert (= (+ (ite (= M_0_3 3) 1 0) (ite (= M_1_3 3) 1 0) (ite (= M_2_3 3) 1 0) (ite (= M_3_4 3) 1 0) (ite (= M_3_5 3) 1 0)) 1))
(assert (= (+ (ite (= M_0_3 4) 1 0) (ite (= M_1_3 4) 1 0) (ite (= M_2_3 4) 1 0) (ite (= M_3_4 4) 1 0) (ite (= M_3_5 4) 1 0)) 1))
(assert (= (+ (ite (= M_0_4 0) 1 0) (ite (= M_1_4 0) 1 0) (ite (= M_2_4 0) 1 0) (ite (= M_3_4 0) 1 0) (ite (= M_4_5 0) 1 0)) 1))
(assert (= (+ (ite (= M_0_4 1) 1 0) (ite (= M_1_4 1) 1 0) (ite (= M_2_4 1) 1 0) (ite (= M_3_4 1) 1 0) (ite (= M_4_5 1) 1 0)) 1))
(assert (= (+ (ite (= M_0_4 2) 1 0) (ite (= M_1_4 2) 1 0) (ite (= M_2_4 2) 1 0) (ite (= M_3_4 2) 1 0) (ite (= M_4_5 2) 1 0)) 1))
(assert (= (+ (ite (= M_0_4 3) 1 0) (ite (= M_1_4 3) 1 0) (ite (= M_2_4 3) 1 0) (ite (= M_3_4 3) 1 0) (ite (= M_4_5 3) 1 0)) 1))
(assert (= (+ (ite (= M_0_4 4) 1 0) (ite (= M_1_4 4) 1 0) (ite (= M_2_4 4) 1 0) (ite (= M_3_4 4) 1 0) (ite (= M_4_5 4) 1 0)) 1))
(assert (= (+ (ite (= M_0_5 0) 1 0) (ite (= M_1_5 0) 1 0) (ite (= M_2_5 0) 1 0) (ite (= M_3_5 0) 1 0) (ite (= M_4_5 0) 1 0)) 1))
(assert (= (+ (ite (= M_0_5 1) 1 0) (ite (= M_1_5 1) 1 0) (ite (= M_2_5 1) 1 0) (ite (= M_3_5 1) 1 0) (ite (= M_4_5 1) 1 0)) 1))
(assert (= (+ (ite (= M_0_5 2) 1 0) (ite (= M_1_5 2) 1 0) (ite (= M_2_5 2) 1 0) (ite (= M_3_5 2) 1 0) (ite (= M_4_5 2) 1 0)) 1))
(assert (= (+ (ite (= M_0_5 3) 1 0) (ite (= M_1_5 3) 1 0) (ite (= M_2_5 3) 1 0) (ite (= M_3_5 3) 1 0) (ite (= M_4_5 3) 1 0)) 1))
(assert (= (+ (ite (= M_0_5 4) 1 0) (ite (= M_1_5 4) 1 0) (ite (= M_2_5 4) 1 0) (ite (= M_3_5 4) 1 0) (ite (= M_4_5 4) 1 0)) 1))

; Constraint 2: Every week has exactly periods matches
(assert (= (+ (ite (= M_0_1 0) 1 0) (ite (= M_0_2 0) 1 0) (ite (= M_0_3 0) 1 0) (ite (= M_0_4 0) 1 0) (ite (= M_0_5 0) 1 0) (ite (= M_1_2 0) 1 0) (ite (= M_1_3 0) 1 0) (ite (= M_1_4 0) 1 0) (ite (= M_1_5 0) 1 0) (ite (= M_2_3 0) 1 0) (ite (= M_2_4 0) 1 0) (ite (= M_2_5 0) 1 0) (ite (= M_3_4 0) 1 0) (ite (= M_3_5 0) 1 0) (ite (= M_4_5 0) 1 0)) 3))
(assert (= (+ (ite (= M_0_1 1) 1 0) (ite (= M_0_2 1) 1 0) (ite (= M_0_3 1) 1 0) (ite (= M_0_4 1) 1 0) (ite (= M_0_5 1) 1 0) (ite (= M_1_2 1) 1 0) (ite (= M_1_3 1) 1 0) (ite (= M_1_4 1) 1 0) (ite (= M_1_5 1) 1 0) (ite (= M_2_3 1) 1 0) (ite (= M_2_4 1) 1 0) (ite (= M_2_5 1) 1 0) (ite (= M_3_4 1) 1 0) (ite (= M_3_5 1) 1 0) (ite (= M_4_5 1) 1 0)) 3))
(assert (= (+ (ite (= M_0_1 2) 1 0) (ite (= M_0_2 2) 1 0) (ite (= M_0_3 2) 1 0) (ite (= M_0_4 2) 1 0) (ite (= M_0_5 2) 1 0) (ite (= M_1_2 2) 1 0) (ite (= M_1_3 2) 1 0) (ite (= M_1_4 2) 1 0) (ite (= M_1_5 2) 1 0) (ite (= M_2_3 2) 1 0) (ite (= M_2_4 2) 1 0) (ite (= M_2_5 2) 1 0) (ite (= M_3_4 2) 1 0) (ite (= M_3_5 2) 1 0) (ite (= M_4_5 2) 1 0)) 3))
(assert (= (+ (ite (= M_0_1 3) 1 0) (ite (= M_0_2 3) 1 0) (ite (= M_0_3 3) 1 0) (ite (= M_0_4 3) 1 0) (ite (= M_0_5 3) 1 0) (ite (= M_1_2 3) 1 0) (ite (= M_1_3 3) 1 0) (ite (= M_1_4 3) 1 0) (ite (= M_1_5 3) 1 0) (ite (= M_2_3 3) 1 0) (ite (= M_2_4 3) 1 0) (ite (= M_2_5 3) 1 0) (ite (= M_3_4 3) 1 0) (ite (= M_3_5 3) 1 0) (ite (= M_4_5 3) 1 0)) 3))
(assert (= (+ (ite (= M_0_1 4) 1 0) (ite (= M_0_2 4) 1 0) (ite (= M_0_3 4) 1 0) (ite (= M_0_4 4) 1 0) (ite (= M_0_5 4) 1 0) (ite (= M_1_2 4) 1 0) (ite (= M_1_3 4) 1 0) (ite (= M_1_4 4) 1 0) (ite (= M_1_5 4) 1 0) (ite (= M_2_3 4) 1 0) (ite (= M_2_4 4) 1 0) (ite (= M_2_5 4) 1 0) (ite (= M_3_4 4) 1 0) (ite (= M_3_5 4) 1 0) (ite (= M_4_5 4) 1 0)) 3))

; Constraint 3: Every week and period have exactly one match
(assert (= (+ (ite (and (= M_0_1 0) (= P_0_1 0)) 1 0) (ite (and (= M_0_2 0) (= P_0_2 0)) 1 0) (ite (and (= M_0_3 0) (= P_0_3 0)) 1 0) (ite (and (= M_0_4 0) (= P_0_4 0)) 1 0) (ite (and (= M_0_5 0) (= P_0_5 0)) 1 0) (ite (and (= M_1_2 0) (= P_1_2 0)) 1 0) (ite (and (= M_1_3 0) (= P_1_3 0)) 1 0) (ite (and (= M_1_4 0) (= P_1_4 0)) 1 0) (ite (and (= M_1_5 0) (= P_1_5 0)) 1 0) (ite (and (= M_2_3 0) (= P_2_3 0)) 1 0) (ite (and (= M_2_4 0) (= P_2_4 0)) 1 0) (ite (and (= M_2_5 0) (= P_2_5 0)) 1 0) (ite (and (= M_3_4 0) (= P_3_4 0)) 1 0) (ite (and (= M_3_5 0) (= P_3_5 0)) 1 0) (ite (and (= M_4_5 0) (= P_4_5 0)) 1 0)) 1))
(assert (= (+ (ite (and (= M_0_1 0) (= P_0_1 1)) 1 0) (ite (and (= M_0_2 0) (= P_0_2 1)) 1 0) (ite (and (= M_0_3 0) (= P_0_3 1)) 1 0) (ite (and (= M_0_4 0) (= P_0_4 1)) 1 0) (ite (and (= M_0_5 0) (= P_0_5 1)) 1 0) (ite (and (= M_1_2 0) (= P_1_2 1)) 1 0) (ite (and (= M_1_3 0) (= P_1_3 1)) 1 0) (ite (and (= M_1_4 0) (= P_1_4 1)) 1 0) (ite (and (= M_1_5 0) (= P_1_5 1)) 1 0) (ite (and (= M_2_3 0) (= P_2_3 1)) 1 0) (ite (and (= M_2_4 0) (= P_2_4 1)) 1 0) (ite (and (= M_2_5 0) (= P_2_5 1)) 1 0) (ite (and (= M_3_4 0) (= P_3_4 1)) 1 0) (ite (and (= M_3_5 0) (= P_3_5 1)) 1 0) (ite (and (= M_4_5 0) (= P_4_5 1)) 1 0)) 1))
(assert (= (+ (ite (and (= M_0_1 0) (= P_0_1 2)) 1 0) (ite (and (= M_0_2 0) (= P_0_2 2)) 1 0) (ite (and (= M_0_3 0) (= P_0_3 2)) 1 0) (ite (and (= M_0_4 0) (= P_0_4 2)) 1 0) (ite (and (= M_0_5 0) (= P_0_5 2)) 1 0) (ite (and (= M_1_2 0) (= P_1_2 2)) 1 0) (ite (and (= M_1_3 0) (= P_1_3 2)) 1 0) (ite (and (= M_1_4 0) (= P_1_4 2)) 1 0) (ite (and (= M_1_5 0) (= P_1_5 2)) 1 0) (ite (and (= M_2_3 0) (= P_2_3 2)) 1 0) (ite (and (= M_2_4 0) (= P_2_4 2)) 1 0) (ite (and (= M_2_5 0) (= P_2_5 2)) 1 0) (ite (and (= M_3_4 0) (= P_3_4 2)) 1 0) (ite (and (= M_3_5 0) (= P_3_5 2)) 1 0) (ite (and (= M_4_5 0) (= P_4_5 2)) 1 0)) 1))
(assert (= (+ (ite (and (= M_0_1 1) (= P_0_1 0)) 1 0) (ite (and (= M_0_2 1) (= P_0_2 0)) 1 0) (ite (and (= M_0_3 1) (= P_0_3 0)) 1 0) (ite (and (= M_0_4 1) (= P_0_4 0)) 1 0) (ite (and (= M_0_5 1) (= P_0_5 0)) 1 0) (ite (and (= M_1_2 1) (= P_1_2 0)) 1 0) (ite (and (= M_1_3 1) (= P_1_3 0)) 1 0) (ite (and (= M_1_4 1) (= P_1_4 0)) 1 0) (ite (and (= M_1_5 1) (= P_1_5 0)) 1 0) (ite (and (= M_2_3 1) (= P_2_3 0)) 1 0) (ite (and (= M_2_4 1) (= P_2_4 0)) 1 0) (ite (and (= M_2_5 1) (= P_2_5 0)) 1 0) (ite (and (= M_3_4 1) (= P_3_4 0)) 1 0) (ite (and (= M_3_5 1) (= P_3_5 0)) 1 0) (ite (and (= M_4_5 1) (= P_4_5 0)) 1 0)) 1))
(assert (= (+ (ite (and (= M_0_1 1) (= P_0_1 1)) 1 0) (ite (and (= M_0_2 1) (= P_0_2 1)) 1 0) (ite (and (= M_0_3 1) (= P_0_3 1)) 1 0) (ite (and (= M_0_4 1) (= P_0_4 1)) 1 0) (ite (and (= M_0_5 1) (= P_0_5 1)) 1 0) (ite (and (= M_1_2 1) (= P_1_2 1)) 1 0) (ite (and (= M_1_3 1) (= P_1_3 1)) 1 0) (ite (and (= M_1_4 1) (= P_1_4 1)) 1 0) (ite (and (= M_1_5 1) (= P_1_5 1)) 1 0) (ite (and (= M_2_3 1) (= P_2_3 1)) 1 0) (ite (and (= M_2_4 1) (= P_2_4 1)) 1 0) (ite (and (= M_2_5 1) (= P_2_5 1)) 1 0) (ite (and (= M_3_4 1) (= P_3_4 1)) 1 0) (ite (and (= M_3_5 1) (= P_3_5 1)) 1 0) (ite (and (= M_4_5 1) (= P_4_5 1)) 1 0)) 1))
(assert (= (+ (ite (and (= M_0_1 1) (= P_0_1 2)) 1 0) (ite (and (= M_0_2 1) (= P_0_2 2)) 1 0) (ite (and (= M_0_3 1) (= P_0_3 2)) 1 0) (ite (and (= M_0_4 1) (= P_0_4 2)) 1 0) (ite (and (= M_0_5 1) (= P_0_5 2)) 1 0) (ite (and (= M_1_2 1) (= P_1_2 2)) 1 0) (ite (and (= M_1_3 1) (= P_1_3 2)) 1 0) (ite (and (= M_1_4 1) (= P_1_4 2)) 1 0) (ite (and (= M_1_5 1) (= P_1_5 2)) 1 0) (ite (and (= M_2_3 1) (= P_2_3 2)) 1 0) (ite (and (= M_2_4 1) (= P_2_4 2)) 1 0) (ite (and (= M_2_5 1) (= P_2_5 2)) 1 0) (ite (and (= M_3_4 1) (= P_3_4 2)) 1 0) (ite (and (= M_3_5 1) (= P_3_5 2)) 1 0) (ite (and (= M_4_5 1) (= P_4_5 2)) 1 0)) 1))
(assert (= (+ (ite (and (= M_0_1 2) (= P_0_1 0)) 1 0) (ite (and (= M_0_2 2) (= P_0_2 0)) 1 0) (ite (and (= M_0_3 2) (= P_0_3 0)) 1 0) (ite (and (= M_0_4 2) (= P_0_4 0)) 1 0) (ite (and (= M_0_5 2) (= P_0_5 0)) 1 0) (ite (and (= M_1_2 2) (= P_1_2 0)) 1 0) (ite (and (= M_1_3 2) (= P_1_3 0)) 1 0) (ite (and (= M_1_4 2) (= P_1_4 0)) 1 0) (ite (and (= M_1_5 2) (= P_1_5 0)) 1 0) (ite (and (= M_2_3 2) (= P_2_3 0)) 1 0) (ite (and (= M_2_4 2) (= P_2_4 0)) 1 0) (ite (and (= M_2_5 2) (= P_2_5 0)) 1 0) (ite (and (= M_3_4 2) (= P_3_4 0)) 1 0) (ite (and (= M_3_5 2) (= P_3_5 0)) 1 0) (ite (and (= M_4_5 2) (= P_4_5 0)) 1 0)) 1))
(assert (= (+ (ite (and (= M_0_1 2) (= P_0_1 1)) 1 0) (ite (and (= M_0_2 2) (= P_0_2 1)) 1 0) (ite (and (= M_0_3 2) (= P_0_3 1)) 1 0) (ite (and (= M_0_4 2) (= P_0_4 1)) 1 0) (ite (and (= M_0_5 2) (= P_0_5 1)) 1 0) (ite (and (= M_1_2 2) (= P_1_2 1)) 1 0) (ite (and (= M_1_3 2) (= P_1_3 1)) 1 0) (ite (and (= M_1_4 2) (= P_1_4 1)) 1 0) (ite (and (= M_1_5 2) (= P_1_5 1)) 1 0) (ite (and (= M_2_3 2) (= P_2_3 1)) 1 0) (ite (and (= M_2_4 2) (= P_2_4 1)) 1 0) (ite (and (= M_2_5 2) (= P_2_5 1)) 1 0) (ite (and (= M_3_4 2) (= P_3_4 1)) 1 0) (ite (and (= M_3_5 2) (= P_3_5 1)) 1 0) (ite (and (= M_4_5 2) (= P_4_5 1)) 1 0)) 1))
(assert (= (+ (ite (and (= M_0_1 2) (= P_0_1 2)) 1 0) (ite (and (= M_0_2 2) (= P_0_2 2)) 1 0) (ite (and (= M_0_3 2) (= P_0_3 2)) 1 0) (ite (and (= M_0_4 2) (= P_0_4 2)) 1 0) (ite (and (= M_0_5 2) (= P_0_5 2)) 1 0) (ite (and (= M_1_2 2) (= P_1_2 2)) 1 0) (ite (and (= M_1_3 2) (= P_1_3 2)) 1 0) (ite (and (= M_1_4 2) (= P_1_4 2)) 1 0) (ite (and (= M_1_5 2) (= P_1_5 2)) 1 0) (ite (and (= M_2_3 2) (= P_2_3 2)) 1 0) (ite (and (= M_2_4 2) (= P_2_4 2)) 1 0) (ite (and (= M_2_5 2) (= P_2_5 2)) 1 0) (ite (and (= M_3_4 2) (= P_3_4 2)) 1 0) (ite (and (= M_3_5 2) (= P_3_5 2)) 1 0) (ite (and (= M_4_5 2) (= P_4_5 2)) 1 0)) 1))
(assert (= (+ (ite (and (= M_0_1 3) (= P_0_1 0)) 1 0) (ite (and (= M_0_2 3) (= P_0_2 0)) 1 0) (ite (and (= M_0_3 3) (= P_0_3 0)) 1 0) (ite (and (= M_0_4 3) (= P_0_4 0)) 1 0) (ite (and (= M_0_5 3) (= P_0_5 0)) 1 0) (ite (and (= M_1_2 3) (= P_1_2 0)) 1 0) (ite (and (= M_1_3 3) (= P_1_3 0)) 1 0) (ite (and (= M_1_4 3) (= P_1_4 0)) 1 0) (ite (and (= M_1_5 3) (= P_1_5 0)) 1 0) (ite (and (= M_2_3 3) (= P_2_3 0)) 1 0) (ite (and (= M_2_4 3) (= P_2_4 0)) 1 0) (ite (and (= M_2_5 3) (= P_2_5 0)) 1 0) (ite (and (= M_3_4 3) (= P_3_4 0)) 1 0) (ite (and (= M_3_5 3) (= P_3_5 0)) 1 0) (ite (and (= M_4_5 3) (= P_4_5 0)) 1 0)) 1))
(assert (= (+ (ite (and (= M_0_1 3) (= P_0_1 1)) 1 0) (ite (and (= M_0_2 3) (= P_0_2 1)) 1 0) (ite (and (= M_0_3 3) (= P_0_3 1)) 1 0) (ite (and (= M_0_4 3) (= P_0_4 1)) 1 0) (ite (and (= M_0_5 3) (= P_0_5 1)) 1 0) (ite (and (= M_1_2 3) (= P_1_2 1)) 1 0) (ite (and (= M_1_3 3) (= P_1_3 1)) 1 0) (ite (and (= M_1_4 3) (= P_1_4 1)) 1 0) (ite (and (= M_1_5 3) (= P_1_5 1)) 1 0) (ite (and (= M_2_3 3) (= P_2_3 1)) 1 0) (ite (and (= M_2_4 3) (= P_2_4 1)) 1 0) (ite (and (= M_2_5 3) (= P_2_5 1)) 1 0) (ite (and (= M_3_4 3) (= P_3_4 1)) 1 0) (ite (and (= M_3_5 3) (= P_3_5 1)) 1 0) (ite (and (= M_4_5 3) (= P_4_5 1)) 1 0)) 1))
(assert (= (+ (ite (and (= M_0_1 3) (= P_0_1 2)) 1 0) (ite (and (= M_0_2 3) (= P_0_2 2)) 1 0) (ite (and (= M_0_3 3) (= P_0_3 2)) 1 0) (ite (and (= M_0_4 3) (= P_0_4 2)) 1 0) (ite (and (= M_0_5 3) (= P_0_5 2)) 1 0) (ite (and (= M_1_2 3) (= P_1_2 2)) 1 0) (ite (and (= M_1_3 3) (= P_1_3 2)) 1 0) (ite (and (= M_1_4 3) (= P_1_4 2)) 1 0) (ite (and (= M_1_5 3) (= P_1_5 2)) 1 0) (ite (and (= M_2_3 3) (= P_2_3 2)) 1 0) (ite (and (= M_2_4 3) (= P_2_4 2)) 1 0) (ite (and (= M_2_5 3) (= P_2_5 2)) 1 0) (ite (and (= M_3_4 3) (= P_3_4 2)) 1 0) (ite (and (= M_3_5 3) (= P_3_5 2)) 1 0) (ite (and (= M_4_5 3) (= P_4_5 2)) 1 0)) 1))
(assert (= (+ (ite (and (= M_0_1 4) (= P_0_1 0)) 1 0) (ite (and (= M_0_2 4) (= P_0_2 0)) 1 0) (ite (and (= M_0_3 4) (= P_0_3 0)) 1 0) (ite (and (= M_0_4 4) (= P_0_4 0)) 1 0) (ite (and (= M_0_5 4) (= P_0_5 0)) 1 0) (ite (and (= M_1_2 4) (= P_1_2 0)) 1 0) (ite (and (= M_1_3 4) (= P_1_3 0)) 1 0) (ite (and (= M_1_4 4) (= P_1_4 0)) 1 0) (ite (and (= M_1_5 4) (= P_1_5 0)) 1 0) (ite (and (= M_2_3 4) (= P_2_3 0)) 1 0) (ite (and (= M_2_4 4) (= P_2_4 0)) 1 0) (ite (and (= M_2_5 4) (= P_2_5 0)) 1 0) (ite (and (= M_3_4 4) (= P_3_4 0)) 1 0) (ite (and (= M_3_5 4) (= P_3_5 0)) 1 0) (ite (and (= M_4_5 4) (= P_4_5 0)) 1 0)) 1))
(assert (= (+ (ite (and (= M_0_1 4) (= P_0_1 1)) 1 0) (ite (and (= M_0_2 4) (= P_0_2 1)) 1 0) (ite (and (= M_0_3 4) (= P_0_3 1)) 1 0) (ite (and (= M_0_4 4) (= P_0_4 1)) 1 0) (ite (and (= M_0_5 4) (= P_0_5 1)) 1 0) (ite (and (= M_1_2 4) (= P_1_2 1)) 1 0) (ite (and (= M_1_3 4) (= P_1_3 1)) 1 0) (ite (and (= M_1_4 4) (= P_1_4 1)) 1 0) (ite (and (= M_1_5 4) (= P_1_5 1)) 1 0) (ite (and (= M_2_3 4) (= P_2_3 1)) 1 0) (ite (and (= M_2_4 4) (= P_2_4 1)) 1 0) (ite (and (= M_2_5 4) (= P_2_5 1)) 1 0) (ite (and (= M_3_4 4) (= P_3_4 1)) 1 0) (ite (and (= M_3_5 4) (= P_3_5 1)) 1 0) (ite (and (= M_4_5 4) (= P_4_5 1)) 1 0)) 1))
(assert (= (+ (ite (and (= M_0_1 4) (= P_0_1 2)) 1 0) (ite (and (= M_0_2 4) (= P_0_2 2)) 1 0) (ite (and (= M_0_3 4) (= P_0_3 2)) 1 0) (ite (and (= M_0_4 4) (= P_0_4 2)) 1 0) (ite (and (= M_0_5 4) (= P_0_5 2)) 1 0) (ite (and (= M_1_2 4) (= P_1_2 2)) 1 0) (ite (and (= M_1_3 4) (= P_1_3 2)) 1 0) (ite (and (= M_1_4 4) (= P_1_4 2)) 1 0) (ite (and (= M_1_5 4) (= P_1_5 2)) 1 0) (ite (and (= M_2_3 4) (= P_2_3 2)) 1 0) (ite (and (= M_2_4 4) (= P_2_4 2)) 1 0) (ite (and (= M_2_5 4) (= P_2_5 2)) 1 0) (ite (and (= M_3_4 4) (= P_3_4 2)) 1 0) (ite (and (= M_3_5 4) (= P_3_5 2)) 1 0) (ite (and (= M_4_5 4) (= P_4_5 2)) 1 0)) 1))

; Constraint 4: Every team can have a match in the same period at most two times
(assert (<= (+ (ite (= P_0_1 0) 1 0) (ite (= P_0_2 0) 1 0) (ite (= P_0_3 0) 1 0) (ite (= P_0_4 0) 1 0) (ite (= P_0_5 0) 1 0)) 2))
(assert (<= (+ (ite (= P_0_1 1) 1 0) (ite (= P_0_2 1) 1 0) (ite (= P_0_3 1) 1 0) (ite (= P_0_4 1) 1 0) (ite (= P_0_5 1) 1 0)) 2))
(assert (<= (+ (ite (= P_0_1 2) 1 0) (ite (= P_0_2 2) 1 0) (ite (= P_0_3 2) 1 0) (ite (= P_0_4 2) 1 0) (ite (= P_0_5 2) 1 0)) 2))
(assert (<= (+ (ite (= P_0_1 0) 1 0) (ite (= P_1_2 0) 1 0) (ite (= P_1_3 0) 1 0) (ite (= P_1_4 0) 1 0) (ite (= P_1_5 0) 1 0)) 2))
(assert (<= (+ (ite (= P_0_1 1) 1 0) (ite (= P_1_2 1) 1 0) (ite (= P_1_3 1) 1 0) (ite (= P_1_4 1) 1 0) (ite (= P_1_5 1) 1 0)) 2))
(assert (<= (+ (ite (= P_0_1 2) 1 0) (ite (= P_1_2 2) 1 0) (ite (= P_1_3 2) 1 0) (ite (= P_1_4 2) 1 0) (ite (= P_1_5 2) 1 0)) 2))
(assert (<= (+ (ite (= P_0_2 0) 1 0) (ite (= P_1_2 0) 1 0) (ite (= P_2_3 0) 1 0) (ite (= P_2_4 0) 1 0) (ite (= P_2_5 0) 1 0)) 2))
(assert (<= (+ (ite (= P_0_2 1) 1 0) (ite (= P_1_2 1) 1 0) (ite (= P_2_3 1) 1 0) (ite (= P_2_4 1) 1 0) (ite (= P_2_5 1) 1 0)) 2))
(assert (<= (+ (ite (= P_0_2 2) 1 0) (ite (= P_1_2 2) 1 0) (ite (= P_2_3 2) 1 0) (ite (= P_2_4 2) 1 0) (ite (= P_2_5 2) 1 0)) 2))
(assert (<= (+ (ite (= P_0_3 0) 1 0) (ite (= P_1_3 0) 1 0) (ite (= P_2_3 0) 1 0) (ite (= P_3_4 0) 1 0) (ite (= P_3_5 0) 1 0)) 2))
(assert (<= (+ (ite (= P_0_3 1) 1 0) (ite (= P_1_3 1) 1 0) (ite (= P_2_3 1) 1 0) (ite (= P_3_4 1) 1 0) (ite (= P_3_5 1) 1 0)) 2))
(assert (<= (+ (ite (= P_0_3 2) 1 0) (ite (= P_1_3 2) 1 0) (ite (= P_2_3 2) 1 0) (ite (= P_3_4 2) 1 0) (ite (= P_3_5 2) 1 0)) 2))
(assert (<= (+ (ite (= P_0_4 0) 1 0) (ite (= P_1_4 0) 1 0) (ite (= P_2_4 0) 1 0) (ite (= P_3_4 0) 1 0) (ite (= P_4_5 0) 1 0)) 2))
(assert (<= (+ (ite (= P_0_4 1) 1 0) (ite (= P_1_4 1) 1 0) (ite (= P_2_4 1) 1 0) (ite (= P_3_4 1) 1 0) (ite (= P_4_5 1) 1 0)) 2))
(assert (<= (+ (ite (= P_0_4 2) 1 0) (ite (= P_1_4 2) 1 0) (ite (= P_2_4 2) 1 0) (ite (= P_3_4 2) 1 0) (ite (= P_4_5 2) 1 0)) 2))
(assert (<= (+ (ite (= P_0_5 0) 1 0) (ite (= P_1_5 0) 1 0) (ite (= P_2_5 0) 1 0) (ite (= P_3_5 0) 1 0) (ite (= P_4_5 0) 1 0)) 2))
(assert (<= (+ (ite (= P_0_5 1) 1 0) (ite (= P_1_5 1) 1 0) (ite (= P_2_5 1) 1 0) (ite (= P_3_5 1) 1 0) (ite (= P_4_5 1) 1 0)) 2))
(assert (<= (+ (ite (= P_0_5 2) 1 0) (ite (= P_1_5 2) 1 0) (ite (= P_2_5 2) 1 0) (ite (= P_3_5 2) 1 0) (ite (= P_4_5 2) 1 0)) 2))

(check-sat)
(get-model)
(exit)